c Generated map
c Size: 8 * 8, weights in range: 1 to 10, walls: True, with ratio 0.1
c dim 4 of 9
c
p sp 64 91
c graph contains 64 nodes and 91 arcs
c
a 1 9 3
a 9 1 3
a 1 2 5
a 2 1 5
a 2 10 6
a 10 2 6
a 2 3 5
a 3 2 5
a 3 11 5
a 11 3 5
a 3 4 8
a 4 3 8
a 4 12 7
a 12 4 7
a 6 14 7
a 14 6 7
a 8 16 2
a 16 8 2
a 9 17 9
a 17 9 9
a 9 10 4
a 10 9 4
a 10 18 8
a 18 10 8
a 10 11 8
a 11 10 8
a 11 19 3
a 19 11 3
a 11 12 4
a 12 11 4
a 12 20 8
a 20 12 8
a 12 13 7
a 13 12 7
a 13 21 8
a 21 13 8
a 13 14 3
a 14 13 3
a 14 22 6
a 22 14 6
a 14 15 6
a 15 14 6
a 15 23 2
a 23 15 2
a 15 16 5
a 16 15 5
a 16 24 5
a 24 16 5
a 17 25 9
a 25 17 9
a 17 18 6
a 18 17 6
a 18 26 9
a 26 18 9
a 18 19 3
a 19 18 3
a 19 27 3
a 27 19 3
a 19 20 10
a 20 19 10
a 20 21 6
a 21 20 6
a 21 29 9
a 29 21 9
a 21 22 2
a 22 21 2
a 22 23 6
a 23 22 6
a 23 31 9
a 31 23 9
a 23 24 8
a 24 23 8
a 25 33 5
a 33 25 5
a 25 26 6
a 26 25 6
a 26 34 10
a 34 26 10
a 26 27 8
a 27 26 8
a 27 35 3
a 35 27 3
a 29 37 8
a 37 29 8
a 33 41 9
a 41 33 9
a 33 34 9
a 34 33 9
a 34 42 10
a 42 34 10
a 34 35 6
a 35 34 6
a 35 43 7
a 43 35 7
a 35 36 4
a 36 35 4
a 36 44 10
a 44 36 10
a 36 37 6
a 37 36 6
a 37 45 1
a 45 37 1
a 37 38 7
a 38 37 7
a 38 46 3
a 46 38 3
a 40 48 2
a 48 40 2
a 41 49 2
a 49 41 2
a 41 42 10
a 42 41 10
a 42 50 2
a 50 42 2
a 42 43 9
a 43 42 9
a 43 51 9
a 51 43 9
a 43 44 4
a 44 43 4
a 44 52 5
a 52 44 5
a 44 45 1
a 45 44 1
a 45 53 4
a 53 45 4
a 45 46 1
a 46 45 1
a 46 54 10
a 54 46 10
a 46 47 9
a 47 46 9
a 47 55 1
a 55 47 1
a 47 48 10
a 48 47 10
a 48 56 7
a 56 48 7
a 49 57 10
a 57 49 10
a 49 50 5
a 50 49 5
a 50 58 6
a 58 50 6
a 50 51 6
a 51 50 6
a 51 59 9
a 59 51 9
a 51 52 1
a 52 51 1
a 52 60 8
a 60 52 8
a 52 53 5
a 53 52 5
a 53 61 6
a 61 53 6
a 53 54 5
a 54 53 5
a 54 62 3
a 62 54 3
a 54 55 10
a 55 54 10
a 55 63 7
a 63 55 7
a 55 56 5
a 56 55 5
a 56 64 3
a 64 56 3
a 57 58 1
a 58 57 1
a 58 59 7
a 59 58 7
a 59 60 3
a 60 59 3
a 60 61 6
a 61 60 6
a 61 62 4
a 62 61 4
a 62 63 2
a 63 62 2
a 63 64 10
a 64 63 10
